c File: instances/20_0.30_1.col
c
c Description: Random graph of size 20 vertices and P(0.3) of edges between any two vertices.
p col 20 190
e 1 7
e 1 13
e 1 15
e 1 18
e 1 19
e 2 5
e 2 6
e 2 8
e 2 9
e 2 10
e 2 20
e 3 5
e 3 6
e 3 7
e 3 10
e 3 19
e 4 9
e 4 17
e 4 20
e 5 10
e 5 20
e 6 7
e 6 9
e 6 12
e 6 13
e 6 14
e 6 15
e 7 9
e 7 12
e 7 18
e 8 16
e 9 19
e 10 13
e 10 15
e 10 16
e 10 20
e 11 20
e 12 13
e 12 18
e 13 15
e 13 16
e 13 17
e 13 19
e 13 20
e 14 15
e 14 17
e 14 19
e 15 17
e 15 18
e 15 19
e 19 20